
Gurobi 9.5.1 (linux64) logging started Wed Mar  9 18:05:30 2022

Set parameter LogFile to value "../results/logs/log_2022_03_09_17_57.csv_8_95.log"
Set parameter Method to value 3
Gurobi Optimizer version 9.5.1 build v9.5.1rc2 (linux64)
Thread count: 8 physical cores, 8 logical processors, using up to 8 threads
Optimize a model with 376 rows, 9882 columns and 10225 nonzeros
Model fingerprint: 0x3addc220
Variable types: 4941 continuous, 4941 integer (4941 binary)
Coefficient statistics:
  Matrix range     [1e+00, 8e+00]
  Objective range  [1e+00, 1e+00]
  Bounds range     [1e+00, 1e+00]
  RHS range        [1e+00, 1e+02]
Found heuristic solution: objective -0.0000000
Presolve removed 253 rows and 9677 columns
Presolve time: 0.01s
Presolved: 123 rows, 205 columns, 737 nonzeros
Extracted 47 lazy constraints
Variable types: 113 continuous, 92 integer (90 binary)

Root relaxation: objective 7.997328e+01, 34 iterations, 0.00 seconds (0.00 work units)

    Nodes    |    Current Node    |     Objective Bounds      |     Work
 Expl Unexpl |  Obj  Depth IntInf | Incumbent    BestBd   Gap | It/Node Time

     0     0   79.97328    0   22   -0.00000   79.97328      -     -    0s
H    0     0                      11.0000000   79.97328   627%     -    0s
H    0     0                      14.0000000   79.71546   469%     -    0s
     0     0   47.83689    0   30   14.00000   47.83689   242%     -    0s
     0     0   47.71517    0   28   14.00000   47.71517   241%     -    0s
     0     0   47.71387    0   25   14.00000   47.71387   241%     -    0s
     0     0   45.52854    0   23   14.00000   45.52854   225%     -    0s
H    0     0                      16.0000000   45.52854   185%     -    0s
     0     0   45.31753    0   19   16.00000   45.31753   183%     -    0s
     0     0   45.30359    0   20   16.00000   45.30359   183%     -    0s
     0     0   45.11658    0   29   16.00000   45.11658   182%     -    0s
     0     0   45.11658    0   29   16.00000   45.11658   182%     -    0s
     0     2   45.11658    0   29   16.00000   45.11658   182%     -    0s
H   37    40                      42.0000000   44.63592  6.28%  15.4    0s
H   38    40                      43.0000000   44.63592  3.80%  15.1    0s
*  491   130              19      44.0000000   44.37798  0.86%   9.9    0s

Cutting planes:
  Gomory: 14
  Implied bound: 10
  MIR: 53
  RLT: 5
  Relax-and-lift: 12
  Lazy constraints: 47

Explored 559 nodes (5950 simplex iterations) in 0.10 seconds (0.07 work units)
Thread count was 8 (of 8 available processors)

Solution count 7: 44 43 42 ... -0

Optimal solution found (tolerance 1.00e-04)
Best objective 4.400000000000e+01, best bound 4.400000000000e+01, gap 0.0000%
